\Generated by Cardinal Operations

Maximize
   59 x_0_0 + 59 x_0_1 + 59 x_0_2 + 59 x_0_3 + 59 x_0_4 + 59 x_0_5 
   + 59 x_0_6 + 59 x_0_7 + 59 x_0_8 + 59 x_0_9 + 59 x_0_10 + 59 x_0_11 
   + 59 x_0_12 + 59 x_0_13 + 59 x_0_14 + 83 x_1_0 + 83 x_1_1 + 83 x_1_2 
   + 83 x_1_3 + 83 x_1_4 + 83 x_1_5 + 83 x_1_6 + 83 x_1_7 + 83 x_1_8 
   + 83 x_1_9 + 83 x_1_10 + 83 x_1_11 + 83 x_1_12 + 83 x_1_13 + 83 x_1_14 
   + 94 x_2_0 + 94 x_2_1 + 94 x_2_2 + 94 x_2_3 + 94 x_2_4 + 94 x_2_5 
   + 94 x_2_6 + 94 x_2_7 + 94 x_2_8 + 94 x_2_9 + 94 x_2_10 + 94 x_2_11 
   + 94 x_2_12 + 94 x_2_13 + 94 x_2_14 + 41 x_3_0 + 41 x_3_1 + 41 x_3_2 
   + 41 x_3_3 + 41 x_3_4 + 41 x_3_5 + 41 x_3_6 + 41 x_3_7 + 41 x_3_8 
   + 41 x_3_9 + 41 x_3_10 + 41 x_3_11 + 41 x_3_12 + 41 x_3_13 + 41 x_3_14 
   + 96 x_4_0 + 96 x_4_1 + 96 x_4_2 + 96 x_4_3 + 96 x_4_4 + 96 x_4_5 
   + 96 x_4_6 + 96 x_4_7 + 96 x_4_8 + 96 x_4_9 + 96 x_4_10 + 96 x_4_11 
   + 96 x_4_12 + 96 x_4_13 + 96 x_4_14 + 12 x_5_0 + 12 x_5_1 + 12 x_5_2 
   + 12 x_5_3 + 12 x_5_4 + 12 x_5_5 + 12 x_5_6 + 12 x_5_7 + 12 x_5_8 
   + 12 x_5_9 + 12 x_5_10 + 12 x_5_11 + 12 x_5_12 + 12 x_5_13 + 12 x_5_14 
   + 83 x_6_0 + 83 x_6_1 + 83 x_6_2 + 83 x_6_3 + 83 x_6_4 + 83 x_6_5 
   + 83 x_6_6 + 83 x_6_7 + 83 x_6_8 + 83 x_6_9 + 83 x_6_10 + 83 x_6_11 
   + 83 x_6_12 + 83 x_6_13 + 83 x_6_14 + 36 x_7_0 + 36 x_7_1 + 36 x_7_2 
   + 36 x_7_3 + 36 x_7_4 + 36 x_7_5 + 36 x_7_6 + 36 x_7_7 + 36 x_7_8 
   + 36 x_7_9 + 36 x_7_10 + 36 x_7_11 + 36 x_7_12 + 36 x_7_13 + 36 x_7_14 
   + 56 x_8_0 + 56 x_8_1 + 56 x_8_2 + 56 x_8_3 + 56 x_8_4 + 56 x_8_5 
   + 56 x_8_6 + 56 x_8_7 + 56 x_8_8 + 56 x_8_9 + 56 x_8_10 + 56 x_8_11 
   + 56 x_8_12 + 56 x_8_13 + 56 x_8_14 + 27 x_9_0 + 27 x_9_1 + 27 x_9_2 
   + 27 x_9_3 + 27 x_9_4 + 27 x_9_5 + 27 x_9_6 + 27 x_9_7 + 27 x_9_8 
   + 27 x_9_9 + 27 x_9_10 + 27 x_9_11 + 27 x_9_12 + 27 x_9_13 + 27 x_9_14 
   + 47 x_10_0 + 47 x_10_1 + 47 x_10_2 + 47 x_10_3 + 47 x_10_4 + 47 x_10_5 
   + 47 x_10_6 + 47 x_10_7 + 47 x_10_8 + 47 x_10_9 + 47 x_10_10 
   + 47 x_10_11 + 47 x_10_12 + 47 x_10_13 + 47 x_10_14 + 24 x_11_0 
   + 24 x_11_1 + 24 x_11_2 + 24 x_11_3 + 24 x_11_4 + 24 x_11_5 + 24 x_11_6 
   + 24 x_11_7 + 24 x_11_8 + 24 x_11_9 + 24 x_11_10 + 24 x_11_11 
   + 24 x_11_12 + 24 x_11_13 + 24 x_11_14 + 14 x_12_0 + 14 x_12_1 
   + 14 x_12_2 + 14 x_12_3 + 14 x_12_4 + 14 x_12_5 + 14 x_12_6 + 14 x_12_7 
   + 14 x_12_8 + 14 x_12_9 + 14 x_12_10 + 14 x_12_11 + 14 x_12_12 
   + 14 x_12_13 + 14 x_12_14 + 22 x_13_0 + 22 x_13_1 + 22 x_13_2 
   + 22 x_13_3 + 22 x_13_4 + 22 x_13_5 + 22 x_13_6 + 22 x_13_7 + 22 x_13_8 
   + 22 x_13_9 + 22 x_13_10 + 22 x_13_11 + 22 x_13_12 + 22 x_13_13 
   + 22 x_13_14 + 17 x_14_0 + 17 x_14_1 + 17 x_14_2 + 17 x_14_3 + 17 x_14_4 
   + 17 x_14_5 + 17 x_14_6 + 17 x_14_7 + 17 x_14_8 + 17 x_14_9 + 17 x_14_10 
   + 17 x_14_11 + 17 x_14_12 + 17 x_14_13 + 17 x_14_14 
Subject To
 capacity_constraint: 776 x_0_0 + 573 x_1_0 + 127 x_2_0 + 138 x_3_0 
   + 385 x_4_0 + 263 x_5_0 + 473 x_6_0 + 387 x_7_0 + 390 x_8_0 + 556 x_9_0 
   + 601 x_10_0 + 441 x_11_0 + 603 x_12_0 + 411 x_13_0 + 652 x_14_0 <= 995
 776 x_0_1 + 573 x_1_1 + 127 x_2_1 + 138 x_3_1 + 385 x_4_1 + 263 x_5_1 
   + 473 x_6_1 + 387 x_7_1 + 390 x_8_1 + 556 x_9_1 + 601 x_10_1 
   + 441 x_11_1 + 603 x_12_1 + 411 x_13_1 + 652 x_14_1 <= 1143
 776 x_0_2 + 573 x_1_2 + 127 x_2_2 + 138 x_3_2 + 385 x_4_2 + 263 x_5_2 
   + 473 x_6_2 + 387 x_7_2 + 390 x_8_2 + 556 x_9_2 + 601 x_10_2 
   + 441 x_11_2 + 603 x_12_2 + 411 x_13_2 + 652 x_14_2 <= 949
 776 x_0_3 + 573 x_1_3 + 127 x_2_3 + 138 x_3_3 + 385 x_4_3 + 263 x_5_3 
   + 473 x_6_3 + 387 x_7_3 + 390 x_8_3 + 556 x_9_3 + 601 x_10_3 
   + 441 x_11_3 + 603 x_12_3 + 411 x_13_3 + 652 x_14_3 <= 969
 776 x_0_4 + 573 x_1_4 + 127 x_2_4 + 138 x_3_4 + 385 x_4_4 + 263 x_5_4 
   + 473 x_6_4 + 387 x_7_4 + 390 x_8_4 + 556 x_9_4 + 601 x_10_4 
   + 441 x_11_4 + 603 x_12_4 + 411 x_13_4 + 652 x_14_4 <= 1649
 776 x_0_5 + 573 x_1_5 + 127 x_2_5 + 138 x_3_5 + 385 x_4_5 + 263 x_5_5 
   + 473 x_6_5 + 387 x_7_5 + 390 x_8_5 + 556 x_9_5 + 601 x_10_5 
   + 441 x_11_5 + 603 x_12_5 + 411 x_13_5 + 652 x_14_5 <= 870
 776 x_0_6 + 573 x_1_6 + 127 x_2_6 + 138 x_3_6 + 385 x_4_6 + 263 x_5_6 
   + 473 x_6_6 + 387 x_7_6 + 390 x_8_6 + 556 x_9_6 + 601 x_10_6 
   + 441 x_11_6 + 603 x_12_6 + 411 x_13_6 + 652 x_14_6 <= 1064
 776 x_0_7 + 573 x_1_7 + 127 x_2_7 + 138 x_3_7 + 385 x_4_7 + 263 x_5_7 
   + 473 x_6_7 + 387 x_7_7 + 390 x_8_7 + 556 x_9_7 + 601 x_10_7 
   + 441 x_11_7 + 603 x_12_7 + 411 x_13_7 + 652 x_14_7 <= 536
 776 x_0_8 + 573 x_1_8 + 127 x_2_8 + 138 x_3_8 + 385 x_4_8 + 263 x_5_8 
   + 473 x_6_8 + 387 x_7_8 + 390 x_8_8 + 556 x_9_8 + 601 x_10_8 
   + 441 x_11_8 + 603 x_12_8 + 411 x_13_8 + 652 x_14_8 <= 766
 776 x_0_9 + 573 x_1_9 + 127 x_2_9 + 138 x_3_9 + 385 x_4_9 + 263 x_5_9 
   + 473 x_6_9 + 387 x_7_9 + 390 x_8_9 + 556 x_9_9 + 601 x_10_9 
   + 441 x_11_9 + 603 x_12_9 + 411 x_13_9 + 652 x_14_9 <= 532
 776 x_0_10 + 573 x_1_10 + 127 x_2_10 + 138 x_3_10 + 385 x_4_10 
   + 263 x_5_10 + 473 x_6_10 + 387 x_7_10 + 390 x_8_10 + 556 x_9_10 
   + 601 x_10_10 + 441 x_11_10 + 603 x_12_10 + 411 x_13_10 + 652 x_14_10 
   <= 1703
 776 x_0_11 + 573 x_1_11 + 127 x_2_11 + 138 x_3_11 + 385 x_4_11 
   + 263 x_5_11 + 473 x_6_11 + 387 x_7_11 + 390 x_8_11 + 556 x_9_11 
   + 601 x_10_11 + 441 x_11_11 + 603 x_12_11 + 411 x_13_11 + 652 x_14_11 
   <= 1633
 776 x_0_12 + 573 x_1_12 + 127 x_2_12 + 138 x_3_12 + 385 x_4_12 
   + 263 x_5_12 + 473 x_6_12 + 387 x_7_12 + 390 x_8_12 + 556 x_9_12 
   + 601 x_10_12 + 441 x_11_12 + 603 x_12_12 + 411 x_13_12 + 652 x_14_12 
   <= 1203
 776 x_0_13 + 573 x_1_13 + 127 x_2_13 + 138 x_3_13 + 385 x_4_13 
   + 263 x_5_13 + 473 x_6_13 + 387 x_7_13 + 390 x_8_13 + 556 x_9_13 
   + 601 x_10_13 + 441 x_11_13 + 603 x_12_13 + 411 x_13_13 + 652 x_14_13 
   <= 1979
 776 x_0_14 + 573 x_1_14 + 127 x_2_14 + 138 x_3_14 + 385 x_4_14 
   + 263 x_5_14 + 473 x_6_14 + 387 x_7_14 + 390 x_8_14 + 556 x_9_14 
   + 601 x_10_14 + 441 x_11_14 + 603 x_12_14 + 411 x_13_14 + 652 x_14_14 
   <= 1797
Generals
 x_0_0  x_0_1  x_0_2  x_0_3  x_0_4  x_0_5  x_0_6  x_0_7  x_0_8  x_0_9  
 x_0_10  x_0_11  x_0_12  x_0_13  x_0_14  x_1_0  x_1_1  x_1_2  x_1_3  x_1_4  
 x_1_5  x_1_6  x_1_7  x_1_8  x_1_9  x_1_10  x_1_11  x_1_12  x_1_13  x_1_14  
 x_2_0  x_2_1  x_2_2  x_2_3  x_2_4  x_2_5  x_2_6  x_2_7  x_2_8  x_2_9  
 x_2_10  x_2_11  x_2_12  x_2_13  x_2_14  x_3_0  x_3_1  x_3_2  x_3_3  x_3_4  
 x_3_5  x_3_6  x_3_7  x_3_8  x_3_9  x_3_10  x_3_11  x_3_12  x_3_13  x_3_14  
 x_4_0  x_4_1  x_4_2  x_4_3  x_4_4  x_4_5  x_4_6  x_4_7  x_4_8  x_4_9  
 x_4_10  x_4_11  x_4_12  x_4_13  x_4_14  x_5_0  x_5_1  x_5_2  x_5_3  x_5_4  
 x_5_5  x_5_6  x_5_7  x_5_8  x_5_9  x_5_10  x_5_11  x_5_12  x_5_13  x_5_14  
 x_6_0  x_6_1  x_6_2  x_6_3  x_6_4  x_6_5  x_6_6  x_6_7  x_6_8  x_6_9  
 x_6_10  x_6_11  x_6_12  x_6_13  x_6_14  x_7_0  x_7_1  x_7_2  x_7_3  x_7_4  
 x_7_5  x_7_6  x_7_7  x_7_8  x_7_9  x_7_10  x_7_11  x_7_12  x_7_13  x_7_14  
 x_8_0  x_8_1  x_8_2  x_8_3  x_8_4  x_8_5  x_8_6  x_8_7  x_8_8  x_8_9  
 x_8_10  x_8_11  x_8_12  x_8_13  x_8_14  x_9_0  x_9_1  x_9_2  x_9_3  x_9_4  
 x_9_5  x_9_6  x_9_7  x_9_8  x_9_9  x_9_10  x_9_11  x_9_12  x_9_13  x_9_14  
 x_10_0  x_10_1  x_10_2  x_10_3  x_10_4  x_10_5  x_10_6  x_10_7  x_10_8  
 x_10_9  x_10_10  x_10_11  x_10_12  x_10_13  x_10_14  x_11_0  x_11_1  
 x_11_2  x_11_3  x_11_4  x_11_5  x_11_6  x_11_7  x_11_8  x_11_9  x_11_10  
 x_11_11  x_11_12  x_11_13  x_11_14  x_12_0  x_12_1  x_12_2  x_12_3  
 x_12_4  x_12_5  x_12_6  x_12_7  x_12_8  x_12_9  x_12_10  x_12_11  x_12_12  
 x_12_13  x_12_14  x_13_0  x_13_1  x_13_2  x_13_3  x_13_4  x_13_5  x_13_6  
 x_13_7  x_13_8  x_13_9  x_13_10  x_13_11  x_13_12  x_13_13  x_13_14  
 x_14_0  x_14_1  x_14_2  x_14_3  x_14_4  x_14_5  x_14_6  x_14_7  x_14_8  
 x_14_9  x_14_10  x_14_11  x_14_12  x_14_13  x_14_14  
END

